386
460
385
416
318
426
316
363
412
382
423
392
418
412
391
323
512
442
375
441
411
403
524
489
421
363
475
414
418
389
424
395
452
349
390
374
451
485
406
455
366
419
434
505
413
407
436
495
447
396
383
397
382
440
359
400
355
468
422
429
426
422
337
423
317
375
400
509
430
477
539
425
339
430
374
391
485
380
390
489
436
445
407
459
451
354
403
387
411
432
471
353
496
434
467
425
372
357
423
428
